(benchmark gametime
:status unknown
:logic QF_AUFBV
:extrafuns ((gtINDEX104  BitVec[32]))
:extrafuns ((gtFIELD__bitsForTID0__gtAGG____anonstruct_D_Work_4  Array[32:32]))
:extrafuns ((gtINDEX105  BitVec[32]))
:extrafuns ((gtAGG__rtDWork  BitVec[32]))
:extrafuns ((gtINDEX102  BitVec[32]))
:extrafuns ((gtINDEX103  BitVec[32]))
:extrafuns ((gtINDEX100  BitVec[32]))
:extrafuns ((gtINDEX101  BitVec[32]))
:extrafuns ((gtINDEX98  BitVec[32]))
:extrafuns ((gtINDEX99  BitVec[32]))
:extrafuns ((gtINDEX97  BitVec[32]))
:extrafuns ((gtINDEX96  BitVec[32]))
:extrafuns ((gtINDEX95  BitVec[32]))
:extrafuns ((gtINDEX94  BitVec[32]))
:extrafuns ((gtINDEX92  BitVec[32]))
:extrafuns ((gtINDEX93  BitVec[32]))
:extrafuns ((gtINDEX90  BitVec[32]))
:extrafuns ((gtINDEX91  BitVec[32]))
:extrafuns ((gtINDEX88  BitVec[32]))
:extrafuns ((gtINDEX89  BitVec[32]))
:extrafuns ((gtINDEX86  BitVec[32]))
:extrafuns ((gtINDEX87  BitVec[32]))
:extrafuns ((gtINDEX84  BitVec[32]))
:extrafuns ((gtINDEX85  BitVec[32]))
:extrafuns ((gtINDEX82  BitVec[32]))
:extrafuns ((gtINDEX83  BitVec[32]))
:extrafuns ((gtINDEX80  BitVec[32]))
:extrafuns ((gtINDEX81  BitVec[32]))
:extrafuns ((gtINDEX78  BitVec[32]))
:extrafuns ((gtINDEX79  BitVec[32]))
:extrafuns ((gtINDEX77  BitVec[32]))
:extrafuns ((gtINDEX75  BitVec[32]))
:extrafuns ((gtINDEX76  BitVec[32]))
:extrafuns ((gtINDEX73  BitVec[32]))
:extrafuns ((gtINDEX74  BitVec[32]))
:extrafuns ((gtINDEX71  BitVec[32]))
:extrafuns ((gtINDEX72  BitVec[32]))
:extrafuns ((gtINDEX69  BitVec[32]))
:extrafuns ((gtINDEX70  BitVec[32]))
:extrafuns ((gtINDEX68  BitVec[32]))
:extrafuns ((gtINDEX66  BitVec[32]))
:extrafuns ((gtINDEX67  BitVec[32]))
:extrafuns ((gtINDEX64  BitVec[32]))
:extrafuns ((gtINDEX65  BitVec[32]))
:extrafuns ((gtINDEX62  BitVec[32]))
:extrafuns ((gtINDEX63  BitVec[32]))
:extrafuns ((gtINDEX60  BitVec[32]))
:extrafuns ((gtINDEX61  BitVec[32]))
:extrafuns ((gtINDEX58  BitVec[32]))
:extrafuns ((gtINDEX59  BitVec[32]))
:extrafuns ((gtINDEX56  BitVec[32]))
:extrafuns ((gtINDEX57  BitVec[32]))
:extrafuns ((gtINDEX55  BitVec[32]))
:extrafuns ((gtINDEX54  BitVec[32]))
:extrafuns ((gtINDEX53  BitVec[32]))
:extrafuns ((gtINDEX52  BitVec[32]))
:extrafuns ((gtINDEX51  BitVec[32]))
:extrafuns ((gtINDEX49  BitVec[32]))
:extrafuns ((gtINDEX50  BitVec[32]))
:extrafuns ((gtINDEX47  BitVec[32]))
:extrafuns ((gtINDEX48  BitVec[32]))
:extrafuns ((gtINDEX45  BitVec[32]))
:extrafuns ((gtINDEX46  BitVec[32]))
:extrafuns ((gtINDEX43  BitVec[32]))
:extrafuns ((gtINDEX44  BitVec[32]))
:extrafuns ((gtINDEX41  BitVec[32]))
:extrafuns ((gtINDEX42  BitVec[32]))
:extrafuns ((gtINDEX39  BitVec[32]))
:extrafuns ((gtINDEX40  BitVec[32]))
:extrafuns ((gtINDEX37  BitVec[32]))
:extrafuns ((gtINDEX38  BitVec[32]))
:extrafuns ((gtINDEX35  BitVec[32]))
:extrafuns ((gtINDEX36  BitVec[32]))
:extrafuns ((gtINDEX34  BitVec[32]))
:extrafuns ((gtINDEX32  BitVec[32]))
:extrafuns ((gtINDEX33  BitVec[32]))
:extrafuns ((gtINDEX30  BitVec[32]))
:extrafuns ((gtINDEX31  BitVec[32]))
:extrafuns ((gtINDEX28  BitVec[32]))
:extrafuns ((gtINDEX29  BitVec[32]))
:extrafuns ((gtINDEX26  BitVec[32]))
:extrafuns ((gtINDEX27  BitVec[32]))
:extrafuns ((gtINDEX25  BitVec[32]))
:extrafuns ((gtINDEX23  BitVec[32]))
:extrafuns ((gtINDEX24  BitVec[32]))
:extrafuns ((gtINDEX21  BitVec[32]))
:extrafuns ((gtINDEX22  BitVec[32]))
:extrafuns ((gtINDEX19  BitVec[32]))
:extrafuns ((gtINDEX20  BitVec[32]))
:extrafuns ((gtINDEX17  BitVec[32]))
:extrafuns ((gtINDEX18  BitVec[32]))
:extrafuns ((gtINDEX15  BitVec[32]))
:extrafuns ((gtINDEX16  BitVec[32]))
:extrafuns ((gtINDEX13  BitVec[32]))
:extrafuns ((gtINDEX14  BitVec[32]))
:extrafuns ((gtINDEX12  BitVec[32]))
:extrafuns ((gtINDEX11  BitVec[32]))
:extrafuns ((gtINDEX10  BitVec[32]))
:extrafuns ((gtINDEX9  BitVec[32]))
:extrafuns ((gtINDEX8  BitVec[32]))
:extrafuns ((gtINDEX7  BitVec[32]))
:extrafuns ((gtINDEX6  BitVec[32]))
:extrafuns ((gtINDEX5  BitVec[32]))
:extrafuns ((gtINDEX4  BitVec[32]))
:extrafuns ((gtINDEX3  BitVec[32]))
:extrafuns ((gtINDEX2  BitVec[32]))
:extrafuns ((gtINDEX1  BitVec[32]))
:extrafuns ((gtINDEX0  BitVec[32]))
:extrafuns ((gtFIELD__is_Eng__gtAGG____anonstruct_bitsForTID0_5_1_  Array[32:1]))
:extrafuns ((gtFIELD__is_Eng__gtAGG____anonstruct_bitsForTID0_5_2_  Array[32:1]))
:extrafuns ((sf_previousEvent_1_  BitVec[32]))
:extrafuns ((sfEvent__2_  BitVec[32]))
:extrafuns ((gtFIELD__is_Eng__gtAGG____anonstruct_bitsForTID0_5  Array[32:1]))
:extrafuns ((gtFIELD__sent__gtAGG____anonstruct_D_Work_4_1_  Array[32:32]))
:extrafuns ((gtFIELD__sent__gtAGG____anonstruct_D_Work_4_2_  Array[32:32]))
:extrafuns ((gtFIELD__is_active_Eng__gtAGG____anonstruct_bitsForTID0_5  Array[32:1]))
:extrafuns ((gtFIELD__is_PURI__gtAGG____anonstruct_bitsForTID0_5_1_  Array[32:2]))
:extrafuns ((gtFIELD__is_PURI__gtAGG____anonstruct_bitsForTID0_5_2_  Array[32:2]))
:extrafuns ((gtFIELD__is_active_PURI__gtAGG____anonstruct_bitsForTID0_5  Array[32:1]))
:extrafuns ((sfEvent__1_  BitVec[32]))
:extrafuns ((gtFIELD__is_PVRP__gtAGG____anonstruct_bitsForTID0_5  Array[32:2]))
:extrafuns ((gtFIELD__is_active_PVRP__gtAGG____anonstruct_bitsForTID0_5  Array[32:1]))
:extrafuns ((gtFIELD__is_PPVARP__gtAGG____anonstruct_bitsForTID0_5  Array[32:2]))
:extrafuns ((gtFIELD__is_active_PPVARP__gtAGG____anonstruct_bitsForTID0_5  Array[32:1]))
:extrafuns ((gtFIELD__is_PLRI__gtAGG____anonstruct_bitsForTID0_5  Array[32:2]))
:extrafuns ((gtFIELD__is_active_PLRI__gtAGG____anonstruct_bitsForTID0_5  Array[32:1]))
:extrafuns ((gtFIELD__is_PAVI__gtAGG____anonstruct_bitsForTID0_5  Array[32:3]))
:extrafuns ((gtFIELD__is_active_PAVI__gtAGG____anonstruct_bitsForTID0_5  Array[32:1]))
:extrafuns ((sfEvent_  BitVec[32]))
:extrafuns ((gtFIELD__sent__gtAGG____anonstruct_D_Work_4  Array[32:32]))
:extrafuns ((gtFIELD__is_PURI__gtAGG____anonstruct_bitsForTID0_5  Array[32:2]))
:extrafuns ((gtFIELD__temporalCounter_i5__gtAGG____anonstruct_D_Work_4  Array[32:32]))
:extrafuns ((gtFIELD__temporalCounter_i4__gtAGG____anonstruct_D_Work_4  Array[32:32]))
:extrafuns ((gtFIELD__temporalCounter_i4__gtAGG____anonstruct_D_Work_4_1_  Array[32:32]))
:extrafuns ((gtFIELD__temporalCounter_i3__gtAGG____anonstruct_D_Work_4  Array[32:32]))
:extrafuns ((gtFIELD__temporalCounter_i3__gtAGG____anonstruct_D_Work_4_1_  Array[32:32]))
:extrafuns ((gtFIELD__temporalCounter_i2__gtAGG____anonstruct_D_Work_4  Array[32:32]))
:extrafuns ((gtFIELD__temporalCounter_i2__gtAGG____anonstruct_D_Work_4_1_  Array[32:32]))
:extrafuns ((gtFIELD__temporalCounter_i1__gtAGG____anonstruct_D_Work_4  Array[32:32]))
:extrafuns ((gtFIELD__temporalCounter_i1__gtAGG____anonstruct_D_Work_4_1_  Array[32:32]))
:extrapreds ((constraint184 ))
:extrapreds ((constraint183 ))
:extrapreds ((constraint182 ))
:extrapreds ((constraint181 ))
:extrapreds ((constraint180 ))
:extrapreds ((constraint179 ))
:extrapreds ((constraint178 ))
:extrapreds ((constraint177 ))
:extrapreds ((constraint176 ))
:extrapreds ((constraint175 ))
:extrapreds ((constraint174 ))
:extrapreds ((constraint173 ))
:extrapreds ((constraint172 ))
:extrapreds ((constraint171 ))
:extrapreds ((constraint170 ))
:extrapreds ((constraint169 ))
:extrapreds ((constraint168 ))
:extrapreds ((constraint167 ))
:extrapreds ((constraint166 ))
:extrapreds ((constraint165 ))
:extrapreds ((constraint164 ))
:extrapreds ((constraint163 ))
:extrapreds ((constraint162 ))
:extrapreds ((constraint161 ))
:extrapreds ((constraint160 ))
:extrapreds ((constraint159 ))
:extrapreds ((constraint158 ))
:extrapreds ((constraint157 ))
:extrapreds ((constraint156 ))
:extrapreds ((constraint155 ))
:extrapreds ((constraint154 ))
:extrapreds ((constraint153 ))
:extrapreds ((constraint152 ))
:extrapreds ((constraint151 ))
:extrapreds ((constraint150 ))
:extrapreds ((constraint149 ))
:extrapreds ((constraint148 ))
:extrapreds ((constraint147 ))
:extrapreds ((constraint146 ))
:extrapreds ((constraint145 ))
:extrapreds ((constraint144 ))
:extrapreds ((constraint143 ))
:extrapreds ((constraint142 ))
:extrapreds ((constraint141 ))
:extrapreds ((constraint140 ))
:extrapreds ((constraint139 ))
:extrapreds ((constraint138 ))
:extrapreds ((constraint137 ))
:extrapreds ((constraint136 ))
:extrapreds ((constraint135 ))
:extrapreds ((constraint134 ))
:extrapreds ((constraint133 ))
:extrapreds ((constraint132 ))
:extrapreds ((constraint131 ))
:extrapreds ((constraint130 ))
:extrapreds ((constraint129 ))
:extrapreds ((constraint128 ))
:extrapreds ((constraint127 ))
:extrapreds ((constraint126 ))
:extrapreds ((constraint125 ))
:extrapreds ((constraint124 ))
:extrapreds ((constraint123 ))
:extrapreds ((constraint122 ))
:extrapreds ((constraint121 ))
:extrapreds ((constraint120 ))
:extrapreds ((constraint119 ))
:extrapreds ((constraint118 ))
:extrapreds ((constraint117 ))
:extrapreds ((constraint116 ))
:extrapreds ((constraint115 ))
:extrapreds ((constraint114 ))
:extrapreds ((constraint113 ))
:extrapreds ((constraint112 ))
:extrapreds ((constraint111 ))
:extrapreds ((constraint110 ))
:extrapreds ((constraint109 ))
:extrapreds ((constraint108 ))
:extrapreds ((constraint107 ))
:extrapreds ((constraint106 ))
:extrapreds ((constraint105 ))
:extrapreds ((constraint104 ))
:extrapreds ((constraint103 ))
:extrapreds ((constraint102 ))
:extrapreds ((constraint101 ))
:extrapreds ((constraint100 ))
:extrapreds ((constraint99 ))
:extrapreds ((constraint98 ))
:extrapreds ((constraint97 ))
:extrapreds ((constraint96 ))
:extrapreds ((constraint95 ))
:extrapreds ((constraint94 ))
:extrapreds ((constraint93 ))
:extrapreds ((constraint92 ))
:extrapreds ((constraint91 ))
:extrapreds ((constraint90 ))
:extrapreds ((constraint89 ))
:extrapreds ((constraint88 ))
:extrapreds ((constraint87 ))
:extrapreds ((constraint86 ))
:extrapreds ((constraint85 ))
:extrapreds ((constraint84 ))
:extrapreds ((constraint83 ))
:extrapreds ((constraint82 ))
:extrapreds ((constraint81 ))
:extrapreds ((constraint80 ))
:extrapreds ((constraint79 ))
:extrapreds ((constraint78 ))
:extrapreds ((constraint77 ))
:extrapreds ((constraint76 ))
:extrapreds ((constraint75 ))
:extrapreds ((constraint74 ))
:extrapreds ((constraint73 ))
:extrapreds ((constraint72 ))
:extrapreds ((constraint71 ))
:extrapreds ((constraint70 ))
:extrapreds ((constraint69 ))
:extrapreds ((constraint68 ))
:extrapreds ((constraint67 ))
:extrapreds ((constraint66 ))
:extrapreds ((constraint65 ))
:extrapreds ((constraint64 ))
:extrapreds ((constraint63 ))
:extrapreds ((constraint62 ))
:extrapreds ((constraint61 ))
:extrapreds ((constraint60 ))
:extrapreds ((constraint59 ))
:extrapreds ((constraint58 ))
:extrapreds ((constraint57 ))
:extrapreds ((constraint56 ))
:extrapreds ((constraint55 ))
:extrapreds ((constraint54 ))
:extrapreds ((constraint53 ))
:extrapreds ((constraint52 ))
:extrapreds ((constraint51 ))
:extrapreds ((constraint50 ))
:extrapreds ((constraint49 ))
:extrapreds ((constraint48 ))
:extrapreds ((constraint47 ))
:extrapreds ((constraint46 ))
:extrapreds ((constraint45 ))
:extrapreds ((constraint44 ))
:extrapreds ((constraint43 ))
:extrapreds ((constraint42 ))
:extrapreds ((constraint41 ))
:extrapreds ((constraint40 ))
:extrapreds ((constraint39 ))
:extrapreds ((constraint38 ))
:extrapreds ((constraint37 ))
:extrapreds ((constraint36 ))
:extrapreds ((constraint35 ))
:extrapreds ((constraint34 ))
:extrapreds ((constraint33 ))
:extrapreds ((constraint32 ))
:extrapreds ((constraint31 ))
:extrapreds ((constraint30 ))
:extrapreds ((constraint29 ))
:extrapreds ((constraint28 ))
:extrapreds ((constraint27 ))
:extrapreds ((constraint26 ))
:extrapreds ((constraint25 ))
:extrapreds ((constraint24 ))
:extrapreds ((constraint23 ))
:extrapreds ((constraint22 ))
:extrapreds ((constraint21 ))
:extrapreds ((constraint20 ))
:extrapreds ((constraint19 ))
:extrapreds ((constraint18 ))
:extrapreds ((constraint17 ))
:extrapreds ((constraint16 ))
:extrapreds ((constraint15 ))
:extrapreds ((constraint14 ))
:extrapreds ((constraint13 ))
:extrapreds ((constraint12 ))
:extrapreds ((constraint11 ))
:extrapreds ((constraint10 ))
:extrapreds ((constraint9 ))
:extrapreds ((constraint8 ))
:extrapreds ((constraint7 ))
:extrapreds ((constraint6 ))
:extrapreds ((constraint5 ))
:extrapreds ((constraint4 ))
:extrapreds ((constraint3 ))
:extrapreds ((constraint2 ))
:extrapreds ((constraint1 ))
:extrapreds ((constraint0 ))
:formula
(flet ($x920 (and constraint0 constraint1 constraint2 constraint3 constraint4 constraint5 constraint6 constraint7 constraint8 constraint9 constraint10 constraint11 constraint12 constraint13 constraint14 constraint15 constraint16 constraint17 constraint18 constraint19 constraint20 constraint21 constraint22 constraint23 constraint24 constraint25 constraint26 constraint27 constraint28 constraint29 constraint30 constraint31 constraint32 constraint33 constraint34 constraint35 constraint36 constraint37 constraint38 constraint39 constraint40 constraint41 constraint42 constraint43 constraint44 constraint45 constraint46 constraint47 constraint48 constraint49 constraint50 constraint51 constraint52 constraint53 constraint54 constraint55 constraint56 constraint57 constraint58 constraint59 constraint60 constraint61 constraint62 constraint63 constraint64 constraint65 constraint66 constraint67 constraint68 constraint69 constraint70 constraint71 constraint72 constraint73 constraint74 constraint75 constraint76 constraint77 constraint78 constraint79 constraint80 constraint81 constraint82 constraint83 constraint84 constraint85 constraint86 constraint87 constraint88 constraint89 constraint90 constraint91 constraint92 constraint93 constraint94 constraint95 constraint96 constraint97 constraint98 constraint99 constraint100 constraint101 constraint102 constraint103 constraint104 constraint105 constraint106 constraint107 constraint108 constraint109 constraint110 constraint111 constraint112 constraint113 constraint114 constraint115 constraint116 constraint117 constraint118 constraint119 constraint120 constraint121 constraint122 constraint123 constraint124 constraint125 constraint126 constraint127 constraint128 constraint129 constraint130 constraint131 constraint132 constraint133 constraint134 constraint135 constraint136 constraint137 constraint138 constraint139 constraint140 constraint141 constraint142 constraint143 constraint144 constraint145 constraint146 constraint147 constraint148 constraint149 constraint150 constraint151 constraint152 constraint153 constraint154 constraint155 constraint156 constraint157 constraint158 constraint159 constraint160 constraint161 constraint162 constraint163 constraint164 constraint165 constraint166 constraint167 constraint168 constraint169 constraint170 constraint171 constraint172 constraint173 constraint174 constraint175 constraint176 constraint177 constraint178 constraint179 constraint180 constraint181 constraint182 constraint183 constraint184))
(let (?x547 (select gtFIELD__bitsForTID0__gtAGG____anonstruct_D_Work_4 gtINDEX104))
(let (?x543 (select gtFIELD__bitsForTID0__gtAGG____anonstruct_D_Work_4 gtINDEX102))
(let (?x539 (select gtFIELD__bitsForTID0__gtAGG____anonstruct_D_Work_4 gtINDEX100))
(flet ($x536 (= gtINDEX99 (select gtFIELD__bitsForTID0__gtAGG____anonstruct_D_Work_4 gtINDEX98)))
(flet ($x528 (= gtINDEX93 (select gtFIELD__bitsForTID0__gtAGG____anonstruct_D_Work_4 gtINDEX92)))
(flet ($x524 (= gtINDEX91 (select gtFIELD__bitsForTID0__gtAGG____anonstruct_D_Work_4 gtINDEX90)))
(flet ($x520 (= gtINDEX89 (select gtFIELD__bitsForTID0__gtAGG____anonstruct_D_Work_4 gtINDEX88)))
(flet ($x516 (= gtINDEX87 (select gtFIELD__bitsForTID0__gtAGG____anonstruct_D_Work_4 gtINDEX86)))
(flet ($x512 (= gtINDEX85 (select gtFIELD__bitsForTID0__gtAGG____anonstruct_D_Work_4 gtINDEX84)))
(flet ($x508 (= gtINDEX83 (select gtFIELD__bitsForTID0__gtAGG____anonstruct_D_Work_4 gtINDEX82)))
(flet ($x504 (= gtINDEX81 (select gtFIELD__bitsForTID0__gtAGG____anonstruct_D_Work_4 gtINDEX80)))
(flet ($x500 (= gtINDEX79 (select gtFIELD__bitsForTID0__gtAGG____anonstruct_D_Work_4 gtINDEX78)))
(flet ($x495 (= gtINDEX76 (select gtFIELD__bitsForTID0__gtAGG____anonstruct_D_Work_4 gtINDEX75)))
(flet ($x491 (= gtINDEX74 (select gtFIELD__bitsForTID0__gtAGG____anonstruct_D_Work_4 gtINDEX73)))
(flet ($x487 (= gtINDEX72 (select gtFIELD__bitsForTID0__gtAGG____anonstruct_D_Work_4 gtINDEX71)))
(flet ($x483 (= gtINDEX70 (select gtFIELD__bitsForTID0__gtAGG____anonstruct_D_Work_4 gtINDEX69)))
(flet ($x478 (= gtINDEX67 (select gtFIELD__bitsForTID0__gtAGG____anonstruct_D_Work_4 gtINDEX66)))
(flet ($x474 (= gtINDEX65 (select gtFIELD__bitsForTID0__gtAGG____anonstruct_D_Work_4 gtINDEX64)))
(flet ($x470 (= gtINDEX63 (select gtFIELD__bitsForTID0__gtAGG____anonstruct_D_Work_4 gtINDEX62)))
(flet ($x466 (= gtINDEX61 (select gtFIELD__bitsForTID0__gtAGG____anonstruct_D_Work_4 gtINDEX60)))
(flet ($x462 (= gtINDEX59 (select gtFIELD__bitsForTID0__gtAGG____anonstruct_D_Work_4 gtINDEX58)))
(flet ($x458 (= gtINDEX57 (select gtFIELD__bitsForTID0__gtAGG____anonstruct_D_Work_4 gtINDEX56)))
(flet ($x449 (= gtINDEX50 (select gtFIELD__bitsForTID0__gtAGG____anonstruct_D_Work_4 gtINDEX49)))
(flet ($x445 (= gtINDEX48 (select gtFIELD__bitsForTID0__gtAGG____anonstruct_D_Work_4 gtINDEX47)))
(flet ($x441 (= gtINDEX46 (select gtFIELD__bitsForTID0__gtAGG____anonstruct_D_Work_4 gtINDEX45)))
(flet ($x437 (= gtINDEX44 (select gtFIELD__bitsForTID0__gtAGG____anonstruct_D_Work_4 gtINDEX43)))
(flet ($x433 (= gtINDEX42 (select gtFIELD__bitsForTID0__gtAGG____anonstruct_D_Work_4 gtINDEX41)))
(flet ($x429 (= gtINDEX40 (select gtFIELD__bitsForTID0__gtAGG____anonstruct_D_Work_4 gtINDEX39)))
(flet ($x425 (= gtINDEX38 (select gtFIELD__bitsForTID0__gtAGG____anonstruct_D_Work_4 gtINDEX37)))
(flet ($x421 (= gtINDEX36 (select gtFIELD__bitsForTID0__gtAGG____anonstruct_D_Work_4 gtINDEX35)))
(flet ($x416 (= gtINDEX33 (select gtFIELD__bitsForTID0__gtAGG____anonstruct_D_Work_4 gtINDEX32)))
(flet ($x412 (= gtINDEX31 (select gtFIELD__bitsForTID0__gtAGG____anonstruct_D_Work_4 gtINDEX30)))
(flet ($x408 (= gtINDEX29 (select gtFIELD__bitsForTID0__gtAGG____anonstruct_D_Work_4 gtINDEX28)))
(flet ($x404 (= gtINDEX27 (select gtFIELD__bitsForTID0__gtAGG____anonstruct_D_Work_4 gtINDEX26)))
(flet ($x399 (= gtINDEX24 (select gtFIELD__bitsForTID0__gtAGG____anonstruct_D_Work_4 gtINDEX23)))
(flet ($x395 (= gtINDEX22 (select gtFIELD__bitsForTID0__gtAGG____anonstruct_D_Work_4 gtINDEX21)))
(flet ($x391 (= gtINDEX20 (select gtFIELD__bitsForTID0__gtAGG____anonstruct_D_Work_4 gtINDEX19)))
(flet ($x387 (= gtINDEX18 (select gtFIELD__bitsForTID0__gtAGG____anonstruct_D_Work_4 gtINDEX17)))
(flet ($x383 (= gtINDEX16 (select gtFIELD__bitsForTID0__gtAGG____anonstruct_D_Work_4 gtINDEX15)))
(flet ($x379 (= gtINDEX14 (select gtFIELD__bitsForTID0__gtAGG____anonstruct_D_Work_4 gtINDEX13)))
(let (?x350 (extract[0:0] bv1[32]))
(let (?x360 (store gtFIELD__is_Eng__gtAGG____anonstruct_bitsForTID0_5_1_ gtINDEX105 ?x350))
(flet ($x706 (iff constraint78 (= gtFIELD__is_Eng__gtAGG____anonstruct_bitsForTID0_5_2_ ?x360)))
(let (?x356 (select gtFIELD__is_Eng__gtAGG____anonstruct_bitsForTID0_5_1_ gtINDEX103))
(let (?x351 (store gtFIELD__is_Eng__gtAGG____anonstruct_bitsForTID0_5 gtINDEX101 ?x350))
(flet ($x700 (iff constraint75 (= gtFIELD__is_Eng__gtAGG____anonstruct_bitsForTID0_5_1_ ?x351)))
(let (?x347 (zero_extend[31] (select gtFIELD__is_Eng__gtAGG____anonstruct_bitsForTID0_5 gtINDEX99)))
(let (?x343 (store gtFIELD__sent__gtAGG____anonstruct_D_Work_4_1_ gtINDEX97 bv0[32]))
(flet ($x696 (iff constraint73 (= gtFIELD__sent__gtAGG____anonstruct_D_Work_4_2_ ?x343)))
(let (?x215 (bvmul bv4294967295[32] bv1[32]))
(flet ($x341 (= (select gtFIELD__sent__gtAGG____anonstruct_D_Work_4_1_ gtINDEX96) ?x215))
(flet ($x337 (= (select gtFIELD__sent__gtAGG____anonstruct_D_Work_4_1_ gtINDEX95) bv9[32]))
(flet ($x333 (= (select gtFIELD__sent__gtAGG____anonstruct_D_Work_4_1_ gtINDEX94) bv4[32]))
(let (?x329 (zero_extend[31] (select gtFIELD__is_Eng__gtAGG____anonstruct_bitsForTID0_5 gtINDEX93)))
(let (?x323 (select gtFIELD__is_active_Eng__gtAGG____anonstruct_bitsForTID0_5 gtINDEX91))
(let (?x192 (extract[1:0] bv0[32]))
(let (?x320 (store gtFIELD__is_PURI__gtAGG____anonstruct_bitsForTID0_5_1_ gtINDEX89 ?x192))
(flet ($x684 (iff constraint67 (= gtFIELD__is_PURI__gtAGG____anonstruct_bitsForTID0_5_2_ ?x320)))
(let (?x315 (select gtFIELD__is_PURI__gtAGG____anonstruct_bitsForTID0_5_1_ gtINDEX87))
(let (?x310 (select gtFIELD__is_PURI__gtAGG____anonstruct_bitsForTID0_5_1_ gtINDEX85))
(let (?x305 (select gtFIELD__is_active_PURI__gtAGG____anonstruct_bitsForTID0_5 gtINDEX83))
(let (?x299 (select gtFIELD__is_PVRP__gtAGG____anonstruct_bitsForTID0_5 gtINDEX81))
(let (?x294 (select gtFIELD__is_active_PVRP__gtAGG____anonstruct_bitsForTID0_5 gtINDEX79))
(flet ($x291 (= (select gtFIELD__sent__gtAGG____anonstruct_D_Work_4_1_ gtINDEX77) bv0[32]))
(let (?x286 (select gtFIELD__is_PPVARP__gtAGG____anonstruct_bitsForTID0_5 gtINDEX76))
(let (?x281 (select gtFIELD__is_PPVARP__gtAGG____anonstruct_bitsForTID0_5 gtINDEX74))
(let (?x276 (select gtFIELD__is_PPVARP__gtAGG____anonstruct_bitsForTID0_5 gtINDEX72))
(let (?x271 (select gtFIELD__is_active_PPVARP__gtAGG____anonstruct_bitsForTID0_5 gtINDEX70))
(flet ($x262 (= (select gtFIELD__sent__gtAGG____anonstruct_D_Work_4_1_ gtINDEX68) bv0[32]))
(let (?x257 (select gtFIELD__is_PLRI__gtAGG____anonstruct_bitsForTID0_5 gtINDEX67))
(let (?x252 (select gtFIELD__is_active_PLRI__gtAGG____anonstruct_bitsForTID0_5 gtINDEX65))
(let (?x246 (select gtFIELD__is_PAVI__gtAGG____anonstruct_bitsForTID0_5 gtINDEX63))
(let (?x241 (select gtFIELD__is_PAVI__gtAGG____anonstruct_bitsForTID0_5 gtINDEX61))
(let (?x236 (select gtFIELD__is_PAVI__gtAGG____anonstruct_bitsForTID0_5 gtINDEX59))
(let (?x231 (select gtFIELD__is_active_PAVI__gtAGG____anonstruct_bitsForTID0_5 gtINDEX57))
(flet ($x223 (= gtFIELD__sent__gtAGG____anonstruct_D_Work_4_1_ (store gtFIELD__sent__gtAGG____anonstruct_D_Work_4 gtINDEX55 ?x215)))
(flet ($x220 (= (select gtFIELD__sent__gtAGG____anonstruct_D_Work_4 gtINDEX54) bv1[32]))
(flet ($x216 (= (select gtFIELD__sent__gtAGG____anonstruct_D_Work_4 gtINDEX53) ?x215))
(flet ($x211 (= (select gtFIELD__sent__gtAGG____anonstruct_D_Work_4 gtINDEX52) bv9[32]))
(flet ($x206 (= (select gtFIELD__sent__gtAGG____anonstruct_D_Work_4 gtINDEX51) bv4[32]))
(let (?x202 (zero_extend[31] (select gtFIELD__is_Eng__gtAGG____anonstruct_bitsForTID0_5 gtINDEX50)))
(let (?x196 (select gtFIELD__is_active_Eng__gtAGG____anonstruct_bitsForTID0_5 gtINDEX48))
(let (?x193 (store gtFIELD__is_PURI__gtAGG____anonstruct_bitsForTID0_5 gtINDEX46 ?x192))
(flet ($x616 (iff constraint33 (= gtFIELD__is_PURI__gtAGG____anonstruct_bitsForTID0_5_1_ ?x193)))
(let (?x187 (select gtFIELD__is_PURI__gtAGG____anonstruct_bitsForTID0_5 gtINDEX44))
(let (?x182 (select gtFIELD__is_PURI__gtAGG____anonstruct_bitsForTID0_5 gtINDEX42))
(let (?x177 (select gtFIELD__is_active_PURI__gtAGG____anonstruct_bitsForTID0_5 gtINDEX40))
(let (?x171 (select gtFIELD__is_PVRP__gtAGG____anonstruct_bitsForTID0_5 gtINDEX38))
(let (?x166 (select gtFIELD__is_active_PVRP__gtAGG____anonstruct_bitsForTID0_5 gtINDEX36))
(flet ($x163 (= (select gtFIELD__sent__gtAGG____anonstruct_D_Work_4 gtINDEX34) bv0[32]))
(let (?x158 (select gtFIELD__is_PPVARP__gtAGG____anonstruct_bitsForTID0_5 gtINDEX33))
(let (?x153 (select gtFIELD__is_PPVARP__gtAGG____anonstruct_bitsForTID0_5 gtINDEX31))
(let (?x148 (select gtFIELD__is_PPVARP__gtAGG____anonstruct_bitsForTID0_5 gtINDEX29))
(let (?x143 (select gtFIELD__is_active_PPVARP__gtAGG____anonstruct_bitsForTID0_5 gtINDEX27))
(flet ($x132 (= (select gtFIELD__sent__gtAGG____anonstruct_D_Work_4 gtINDEX25) bv0[32]))
(let (?x127 (select gtFIELD__is_PLRI__gtAGG____anonstruct_bitsForTID0_5 gtINDEX24))
(let (?x122 (select gtFIELD__is_active_PLRI__gtAGG____anonstruct_bitsForTID0_5 gtINDEX22))
(let (?x114 (select gtFIELD__is_PAVI__gtAGG____anonstruct_bitsForTID0_5 gtINDEX20))
(let (?x108 (select gtFIELD__is_PAVI__gtAGG____anonstruct_bitsForTID0_5 gtINDEX18))
(let (?x103 (select gtFIELD__is_PAVI__gtAGG____anonstruct_bitsForTID0_5 gtINDEX16))
(let (?x97 (select gtFIELD__is_active_PAVI__gtAGG____anonstruct_bitsForTID0_5 gtINDEX14))
(let (?x93 (select gtFIELD__temporalCounter_i5__gtAGG____anonstruct_D_Work_4 gtINDEX12))
(let (?x88 (select gtFIELD__temporalCounter_i4__gtAGG____anonstruct_D_Work_4 gtINDEX10))
(let (?x90 (store gtFIELD__temporalCounter_i4__gtAGG____anonstruct_D_Work_4 gtINDEX11 (bvadd ?x88 bv1[32])))
(flet ($x566 (iff constraint8 (= gtFIELD__temporalCounter_i4__gtAGG____anonstruct_D_Work_4_1_ ?x90)))
(let (?x84 (select gtFIELD__temporalCounter_i4__gtAGG____anonstruct_D_Work_4 gtINDEX9))
(let (?x79 (select gtFIELD__temporalCounter_i3__gtAGG____anonstruct_D_Work_4 gtINDEX7))
(let (?x81 (store gtFIELD__temporalCounter_i3__gtAGG____anonstruct_D_Work_4 gtINDEX8 (bvadd ?x79 bv1[32])))
(flet ($x562 (iff constraint6 (= gtFIELD__temporalCounter_i3__gtAGG____anonstruct_D_Work_4_1_ ?x81)))
(let (?x75 (select gtFIELD__temporalCounter_i3__gtAGG____anonstruct_D_Work_4 gtINDEX6))
(let (?x70 (select gtFIELD__temporalCounter_i2__gtAGG____anonstruct_D_Work_4 gtINDEX4))
(let (?x72 (store gtFIELD__temporalCounter_i2__gtAGG____anonstruct_D_Work_4 gtINDEX5 (bvadd ?x70 bv1[32])))
(flet ($x558 (iff constraint4 (= gtFIELD__temporalCounter_i2__gtAGG____anonstruct_D_Work_4_1_ ?x72)))
(let (?x66 (select gtFIELD__temporalCounter_i2__gtAGG____anonstruct_D_Work_4 gtINDEX3))
(let (?x60 (select gtFIELD__temporalCounter_i1__gtAGG____anonstruct_D_Work_4 gtINDEX1))
(let (?x63 (store gtFIELD__temporalCounter_i1__gtAGG____anonstruct_D_Work_4 gtINDEX2 (bvadd ?x60 bv1[32])))
(flet ($x554 (iff constraint2 (= gtFIELD__temporalCounter_i1__gtAGG____anonstruct_D_Work_4_1_ ?x63)))
(let (?x55 (select gtFIELD__temporalCounter_i1__gtAGG____anonstruct_D_Work_4 gtINDEX0))
(flet ($x919 (and (iff constraint0 (= sfEvent_ bv8[32])) (iff constraint1 (bvult ?x55 bv4294967295[32])) $x554 (iff constraint3 (bvult ?x66 bv4294967295[32])) $x558 (iff constraint5 (bvult ?x75 bv4294967295[32])) $x562 (iff constraint7 (bvult ?x84 bv4294967295[32])) $x566 (iff constraint9 (not (bvult ?x93 bv4294967295[32]))) (iff constraint10 (not (= (zero_extend[31] ?x97) bv0[32]))) (iff constraint11 (not (= (zero_extend[29] ?x103) bv1[32]))) (iff constraint12 (not (= (zero_extend[29] ?x108) bv2[32]))) (iff constraint13 (= (zero_extend[29] ?x114) bv3[32])) (iff constraint14 (not (= sfEvent_ bv6[32]))) (iff constraint15 (not (= (zero_extend[31] ?x122) bv0[32]))) (iff constraint16 (= (zero_extend[30] ?x127) bv1[32])) (iff constraint17 (not $x132)) (iff constraint18 (not (= sfEvent_ bv4[32]))) (iff constraint19 (not (= sfEvent_ bv5[32]))) (iff constraint20 (not (= sfEvent_ bv3[32]))) (iff constraint21 (not (= (zero_extend[31] ?x143) bv0[32]))) (iff constraint22 (not (= (zero_extend[30] ?x148) bv1[32]))) (iff constraint23 (not (= (zero_extend[30] ?x153) bv2[32]))) (iff constraint24 (= (zero_extend[30] ?x158) bv3[32])) (iff constraint25 (not $x163)) (iff constraint26 (not (= (zero_extend[31] ?x166) bv0[32]))) (iff constraint27 (= (zero_extend[30] ?x171) bv1[32])) (iff constraint28 (not (= sfEvent_ bv0[32]))) (iff constraint29 (not (= sfEvent_ bv4[32]))) (iff constraint30 (not (= (zero_extend[31] ?x177) bv0[32]))) (iff constraint31 (not (= (zero_extend[30] ?x182) bv1[32]))) (iff constraint32 (not (= (zero_extend[30] ?x187) bv2[32]))) $x616 (iff constraint34 (not (= (zero_extend[31] ?x196) bv0[32]))) (iff constraint35 (= ?x202 bv1[32])) (iff constraint36 (not $x206)) (iff constraint37 (not $x211)) (iff constraint38 (not $x216)) (iff constraint39 $x220) (iff constraint40 $x223) (iff constraint41 (= sf_previousEvent_1_ sfEvent_)) (iff constraint42 (= sfEvent__1_ bv2[32])) (iff constraint43 (not (= sfEvent__1_ bv8[32]))) (iff constraint44 (not (= (zero_extend[31] ?x231) bv0[32]))) (iff constraint45 (not (= (zero_extend[29] ?x236) bv1[32]))) (iff constraint46 (not (= (zero_extend[29] ?x241) bv2[32]))) (iff constraint47 (= (zero_extend[29] ?x246) bv3[32])) (iff constraint48 (not (= sfEvent__1_ bv6[32]))) (iff constraint49 (not (= (zero_extend[31] ?x252) bv0[32]))) (iff constraint50 (= (zero_extend[30] ?x257) bv1[32])) (iff constraint51 (not $x262)) (iff constraint52 (not (= sfEvent__1_ bv4[32]))) (iff constraint53 (not (= sfEvent__1_ bv5[32]))) (iff constraint54 (not (= sfEvent__1_ bv3[32]))) (iff constraint55 (not (= (zero_extend[31] ?x271) bv0[32]))) (iff constraint56 (not (= (zero_extend[30] ?x276) bv1[32]))) (iff constraint57 (not (= (zero_extend[30] ?x281) bv2[32]))) (iff constraint58 (= (zero_extend[30] ?x286) bv3[32])) (iff constraint59 (not $x291)) (iff constraint60 (not (= (zero_extend[31] ?x294) bv0[32]))) (iff constraint61 (= (zero_extend[30] ?x299) bv1[32])) (iff constraint62 (not (= sfEvent__1_ bv0[32]))) (iff constraint63 (not (= sfEvent__1_ bv4[32]))) (iff constraint64 (not (= (zero_extend[31] ?x305) bv0[32]))) (iff constraint65 (not (= (zero_extend[30] ?x310) bv1[32]))) (iff constraint66 (not (= (zero_extend[30] ?x315) bv2[32]))) $x684 (iff constraint68 (not (= (zero_extend[31] ?x323) bv0[32]))) (iff constraint69 (= ?x329 bv1[32])) (iff constraint70 (not $x333)) (iff constraint71 (not $x337)) (iff constraint72 $x341) $x696 (iff constraint74 (= ?x347 bv1[32])) $x700 (iff constraint76 (= sfEvent__2_ sf_previousEvent_1_)) (iff constraint77 (= (zero_extend[31] ?x356) bv1[32])) $x706 (iff constraint79 (= gtINDEX0 gtAGG__rtDWork)) (iff constraint80 (= gtINDEX1 gtAGG__rtDWork)) (iff constraint81 (= gtINDEX2 gtAGG__rtDWork)) (iff constraint82 (= gtINDEX3 gtAGG__rtDWork)) (iff constraint83 (= gtINDEX4 gtAGG__rtDWork)) (iff constraint84 (= gtINDEX5 gtAGG__rtDWork)) (iff constraint85 (= gtINDEX6 gtAGG__rtDWork)) (iff constraint86 (= gtINDEX7 gtAGG__rtDWork)) (iff constraint87 (= gtINDEX8 gtAGG__rtDWork)) (iff constraint88 (= gtINDEX9 gtAGG__rtDWork)) (iff constraint89 (= gtINDEX10 gtAGG__rtDWork)) (iff constraint90 (= gtINDEX11 gtAGG__rtDWork)) (iff constraint91 (= gtINDEX12 gtAGG__rtDWork)) (iff constraint92 (= gtINDEX13 gtAGG__rtDWork)) (iff constraint93 $x379) (iff constraint94 (= gtINDEX15 gtAGG__rtDWork)) (iff constraint95 $x383) (iff constraint96 (= gtINDEX17 gtAGG__rtDWork)) (iff constraint97 $x387) (iff constraint98 (= gtINDEX19 gtAGG__rtDWork)) (iff constraint99 $x391) (iff constraint100 (= gtINDEX21 gtAGG__rtDWork)) (iff constraint101 $x395) (iff constraint102 (= gtINDEX23 gtAGG__rtDWork)) (iff constraint103 $x399) (iff constraint104 (= gtINDEX25 gtAGG__rtDWork)) (iff constraint105 (= gtINDEX26 gtAGG__rtDWork)) (iff constraint106 $x404) (iff constraint107 (= gtINDEX28 gtAGG__rtDWork)) (iff constraint108 $x408) (iff constraint109 (= gtINDEX30 gtAGG__rtDWork)) (iff constraint110 $x412) (iff constraint111 (= gtINDEX32 gtAGG__rtDWork)) (iff constraint112 $x416) (iff constraint113 (= gtINDEX34 gtAGG__rtDWork)) (iff constraint114 (= gtINDEX35 gtAGG__rtDWork)) (iff constraint115 $x421) (iff constraint116 (= gtINDEX37 gtAGG__rtDWork)) (iff constraint117 $x425) (iff constraint118 (= gtINDEX39 gtAGG__rtDWork)) (iff constraint119 $x429) (iff constraint120 (= gtINDEX41 gtAGG__rtDWork)) (iff constraint121 $x433) (iff constraint122 (= gtINDEX43 gtAGG__rtDWork)) (iff constraint123 $x437) (iff constraint124 (= gtINDEX45 gtAGG__rtDWork)) (iff constraint125 $x441) (iff constraint126 (= gtINDEX47 gtAGG__rtDWork)) (iff constraint127 $x445) (iff constraint128 (= gtINDEX49 gtAGG__rtDWork)) (iff constraint129 $x449) (iff constraint130 (= gtINDEX51 gtAGG__rtDWork)) (iff constraint131 (= gtINDEX52 gtAGG__rtDWork)) (iff constraint132 (= gtINDEX53 gtAGG__rtDWork)) (iff constraint133 (= gtINDEX54 gtAGG__rtDWork)) (iff constraint134 (= gtINDEX55 gtAGG__rtDWork)) (iff constraint135 (= gtINDEX56 gtAGG__rtDWork)) (iff constraint136 $x458) (iff constraint137 (= gtINDEX58 gtAGG__rtDWork)) (iff constraint138 $x462) (iff constraint139 (= gtINDEX60 gtAGG__rtDWork)) (iff constraint140 $x466) (iff constraint141 (= gtINDEX62 gtAGG__rtDWork)) (iff constraint142 $x470) (iff constraint143 (= gtINDEX64 gtAGG__rtDWork)) (iff constraint144 $x474) (iff constraint145 (= gtINDEX66 gtAGG__rtDWork)) (iff constraint146 $x478) (iff constraint147 (= gtINDEX68 gtAGG__rtDWork)) (iff constraint148 (= gtINDEX69 gtAGG__rtDWork)) (iff constraint149 $x483) (iff constraint150 (= gtINDEX71 gtAGG__rtDWork)) (iff constraint151 $x487) (iff constraint152 (= gtINDEX73 gtAGG__rtDWork)) (iff constraint153 $x491) (iff constraint154 (= gtINDEX75 gtAGG__rtDWork)) (iff constraint155 $x495) (iff constraint156 (= gtINDEX77 gtAGG__rtDWork)) (iff constraint157 (= gtINDEX78 gtAGG__rtDWork)) (iff constraint158 $x500) (iff constraint159 (= gtINDEX80 gtAGG__rtDWork)) (iff constraint160 $x504) (iff constraint161 (= gtINDEX82 gtAGG__rtDWork)) (iff constraint162 $x508) (iff constraint163 (= gtINDEX84 gtAGG__rtDWork)) (iff constraint164 $x512) (iff constraint165 (= gtINDEX86 gtAGG__rtDWork)) (iff constraint166 $x516) (iff constraint167 (= gtINDEX88 gtAGG__rtDWork)) (iff constraint168 $x520) (iff constraint169 (= gtINDEX90 gtAGG__rtDWork)) (iff constraint170 $x524) (iff constraint171 (= gtINDEX92 gtAGG__rtDWork)) (iff constraint172 $x528) (iff constraint173 (= gtINDEX94 gtAGG__rtDWork)) (iff constraint174 (= gtINDEX95 gtAGG__rtDWork)) (iff constraint175 (= gtINDEX96 gtAGG__rtDWork)) (iff constraint176 (= gtINDEX97 gtAGG__rtDWork)) (iff constraint177 (= gtINDEX98 gtAGG__rtDWork)) (iff constraint178 $x536) (iff constraint179 (= gtINDEX100 gtAGG__rtDWork)) (iff constraint180 (= gtINDEX101 ?x539)) (iff constraint181 (= gtINDEX102 gtAGG__rtDWork)) (iff constraint182 (= gtINDEX103 ?x543)) (iff constraint183 (= gtINDEX104 gtAGG__rtDWork)) (iff constraint184 (= gtINDEX105 ?x547))))
(and $x919 $x920)))))))))))))))))))))))))))))))))))))))))))))))))))))))))))))))))))))))))))))))))))))))))))))))))))))))))))))))))))))))))
)
